(declare-fun b (Int Int) Int)
(declare-fun b (Int Real) (Array Int Real))
(declare-fun v () Real)
(declare-fun va () Real)
(declare-fun r () Real)
(declare-fun a () Real)
(assert (forall ((a Real)) (distinct 0.0 (div (to_int a) 0))))
(assert (and (< 0.0 (- v r)) (= r (* va va (/ va r))) (= a (select (b (b 0 0) a) 0))))
(check-sat)
